results_rootrelaxation/bin018_090_041.srr.sol
solution status: optimal solution found
objective value:                                 54.5
_var2745_                          0.0124687267799224 	(obj:4)
_var2996_                          0.0299003607926164 	(obj:3)
_var3018_                          0.0565259133986464 	(obj:2)
_var3077_                          0.0576167170585062 	(obj:3)
_var3108_                           0.247915222213315 	(obj:3)
_var3123_                          0.0520003268371304 	(obj:5)
_var3127_                          0.0495606344080277 	(obj:5)
_var3133_                         0.000386634161936659 	(obj:3)
_var3140_                           0.112251160063595 	(obj:4)
_var3157_                         0.00964956203530881 	(obj:4)
_var3161_                           0.124689505112432 	(obj:5)
_var3180_                          0.0185025135642066 	(obj:4)
_var3186_                          0.0372501877267097 	(obj:3)
_var3203_                           0.275993067320604 	(obj:1)
_var3204_                          0.0855512222265461 	(obj:5)
_var3208_                           0.121330636742843 	(obj:4)
_var3209_                           0.386938108915164 	(obj:3)
_var3214_                         0.00393950947109381 	(obj:2)
_var3223_                          0.0312018973135517 	(obj:4)
_var3224_                          0.0136429311831083 	(obj:4)
_var3234_                           0.162029806188643 	(obj:4)
_var3237_                            0.38509702079724 	(obj:2)
_var3245_                          0.0114428413766043 	(obj:5)
_var3263_                           0.208722253740199 	(obj:3)
_var3267_                         0.00999795487310456 	(obj:5)
_var3283_                           0.162518528091826 	(obj:1)
_var3284_                           0.311745652432087 	(obj:4)
_var3286_                           0.209412602290858 	(obj:3)
_var3290_                          0.0954636114797321 	(obj:3)
_var3298_                           0.346919671461762 	(obj:2)
_var3300_                          0.0525806292641938 	(obj:1)
_var3303_                           0.455928466890941 	(obj:3)
_var3305_                           0.158394363468109 	(obj:3)
_var3308_                          0.0177975374869718 	(obj:3)
_var3315_                          0.0638145918011414 	(obj:3)
_var3328_                           0.186625580005714 	(obj:4)
_var3343_                          0.0433973516515326 	(obj:3)
_var3351_                           0.248340211509288 	(obj:2)
_var3361_                          0.0589212238798991 	(obj:5)
_var3364_                          0.0456715159671742 	(obj:5)
_var3378_                           0.207923745794892 	(obj:5)
_var3384_                           0.307868081629214 	(obj:4)
_var3389_                          0.0248202289694318 	(obj:4)
_var3399_                           0.282418327209275 	(obj:4)
_var3406_                          0.0306044394115106 	(obj:3)
_var3412_                          0.0347831827007151 	(obj:4)
_var3418_                           0.295667903091873 	(obj:3)
_var3419_                           0.363986708880838 	(obj:1)
_var3431_                          0.0954636114797321 	(obj:3)
_var3437_                           0.254747249416347 	(obj:5)
_var3438_                           0.346385683528731 	(obj:4)
_var3444_                         0.00615037815440711 	(obj:3)
_var3449_                           0.019538110048893 	(obj:4)
_var3457_                          0.0805466117335387 	(obj:3)
_var3469_                          0.0501775620676415 	(obj:3)
_var3473_                          0.0201018800001852 	(obj:4)
_var3478_                           0.207461294112634 	(obj:3)
_var3482_                           0.352536061683139 	(obj:3)
_var3490_                           0.314170416656083 	(obj:4)
_var3492_                         0.00881851934768954 	(obj:2)
_var3505_                          0.0655632506871157 	(obj:3)
_var3507_                           0.174537246819294 	(obj:3)
_var3508_                           0.015926734898999 	(obj:2)
_var3509_                           0.208790288681363 	(obj:3)
_var3512_                           0.136575391340233 	(obj:3)
_var3513_                           0.114658360101347 	(obj:5)
_var3517_                          0.0452860494120906 	(obj:5)
_var3519_                          0.0847234830032961 	(obj:3)
_var3533_                         0.00270045547057787 	(obj:4)
_var3535_                           0.283117310557916 	(obj:3)
_var3538_                          0.0326961931758465 	(obj:4)
_var3543_                           0.362236460211527 	(obj:4)
_var3544_                           0.440801211209802 	(obj:3)
_var3546_                           0.145073900286686 	(obj:3)
_var3551_                           0.154863375254685 	(obj:4)
_var3554_                          0.0641863505078024 	(obj:4)
_var3557_                           0.174793814848541 	(obj:4)
_var3559_                          0.0725158810034546 	(obj:4)
_var3560_                           0.391783198599533 	(obj:2)
_var3561_                           0.403116596276171 	(obj:2)
_var3566_                           0.010115053566049 	(obj:4)
_var3576_                          0.0882980175217669 	(obj:4)
_var3583_                          0.0753382989512123 	(obj:3)
_var3585_                           0.108646282298759 	(obj:2)
_var3588_                         0.00706849225437155 	(obj:5)
_var3595_                           0.190924716253227 	(obj:3)
_var3600_                           0.243147600314968 	(obj:4)
_var3605_                           0.188040110775322 	(obj:4)
_var3606_                           0.160718740388871 	(obj:4)
_var3611_                          0.0154260653122864 	(obj:3)
_var3614_                          0.0389376980810855 	(obj:4)
_var3621_                           0.169975554524523 	(obj:2)
_var3625_                           0.461476044299872 	(obj:4)
_var3627_                          0.0138518987242809 	(obj:5)
_var3630_                           0.326949530035288 	(obj:3)
_var3633_                          0.0520003268371294 	(obj:2)
_var3637_                           0.193834897760584 	(obj:3)
_var3639_                           0.134144342419258 	(obj:3)
_var3648_                           0.186692193678614 	(obj:3)
_var3649_                          0.0954636114797321 	(obj:2)
_var3650_                           0.371656644605508 	(obj:3)
_var3652_                            0.10091566985808 	(obj:3)
_var3655_                          0.0492574891576351 	(obj:4)
_var3658_                           0.118520106440649 	(obj:2)
_var3662_                           0.082204614351051 	(obj:4)
_var3664_                          0.0949827007304056 	(obj:4)
_var3667_                          0.0392976585991393 	(obj:5)
_var3671_                          0.0954636114797331 	(obj:4)
_var3674_                          0.0532216139178125 	(obj:3)
_var3676_                            0.15628750485114 	(obj:3)
_var3678_                           0.143347580403038 	(obj:3)
_var3679_                           0.122258456191457 	(obj:3)
_var3680_                           0.211555071716933 	(obj:4)
_var3682_                          0.0868805044085655 	(obj:3)
_var3683_                          0.0520003268371295 	(obj:4)
_var3685_                          0.0389697569638361 	(obj:3)
_var3687_                         0.00259836772933182 	(obj:2)
_var3689_                          0.0520003268371294 	(obj:4)
_var3696_                          0.0662327406972935 	(obj:4)
_var3698_                          0.0464151663883091 	(obj:3)
_var3700_                           0.168389152861885 	(obj:3)
_var3703_                          0.0452860494120876 	(obj:4)
_var3704_                          0.0360543850853863 	(obj:5)
_var3712_                           0.063665084263351 	(obj:3)
_var3713_                          0.0379890320462514 	(obj:5)
_var3714_                          0.0983462502817937 	(obj:3)
_var3715_                           0.069740661898386 	(obj:3)
_var3717_                          0.0951621962641508 	(obj:4)
