results_rootrelaxation/bin018_090_041.srr.log
SCIP version 8.0.3.5 [precision: 8 byte] [memory: block] [mode: optimized] [LP solver: Soplex 6.0.1.3] [GitHash: 438792519e]
Copyright (c) 2002-2023 Zuse Institute Berlin (ZIB)

External libraries: 
  Readline 8.1         GNU library for command line editing (gnu.org/s/readline)
  Soplex 6.0.1.3       Linear Programming Solver developed at Zuse Institute Berlin (soplex.zib.de) [GitHash: 713be0fe]
  CppAD 20180000.0     Algorithmic Differentiation of C++ algorithms developed by B. Bell (github.com/coin-or/CppAD)
  ZLIB 1.2.11          General purpose compression library by J. Gailly and M. Adler (zlib.net)
  bliss 0.77           Computing Graph Automorphism Groups by T. Junttila and P. Kaski (www.tcs.hut.fi/Software/bliss/)

user parameter file <scip.set> not found - using default parameters

srr/relaxation = TRUE

read problem <instances/bin018_090_041.srr>
============

Original problem: 
original problem has 0 variables (0 bin, 0 int, 0 impl, 0 cont) and 170 constraints

presolving:
presolving (1 rounds: 1 fast, 1 medium, 1 exhaustive):
 0 deleted vars, 0 deleted constraints, 0 added constraints, 0 tightened bounds, 0 added holes, 0 changed sides, 0 changed coefficients
 0 implications, 0 cliques
presolved problem has 0 variables (0 bin, 0 int, 0 impl, 0 cont) and 170 constraints
    170 constraints of type <linear>
Presolving Time: 0.00

 time | node  | left  |LP iter|LP it/n|mem/heur|mdpt |vars |cons |rows |cuts |sepa|confs|strbr|  dualbound   | primalbound  |  gap   | compl. 
  0.0s|     1 |     0 |     1 |     - |   922k |   0 |   1 | 170 | 170 |   0 |  0 |   0 |   0 |      --      |      --      |    Inf | unknown
  0.2s|     1 |     0 |  1511 |     - |  7289k |   0 |1615 | 170 | 170 |   0 |  0 |   0 |   0 |      --      |      --      |    Inf | unknown
r 0.9s|     1 |     0 |  6816 |     - |simplero|   0 |2737 | 170 | 170 |   0 |  0 |   0 |   0 |      --      | 1.069457e+02 |    Inf | unknown
r 0.9s|     1 |     0 |  6936 |     - |simplero|   0 |2754 | 170 | 170 |   0 |  0 |   0 |   0 |      --      | 1.045490e+02 |    Inf | unknown
r 1.0s|     1 |     0 |  7095 |     - |simplero|   0 |2771 | 170 | 170 |   0 |  0 |   0 |   0 |      --      | 1.017942e+02 |    Inf | unknown
r 1.0s|     1 |     0 |  7211 |     - |simplero|   0 |2788 | 170 | 170 |   0 |  0 |   0 |   0 |      --      | 9.973422e+01 |    Inf | unknown
r 1.0s|     1 |     0 |  7241 |     - |simplero|   0 |2788 | 170 | 170 |   0 |  0 |   0 |   0 |      --      | 9.967166e+01 |    Inf | unknown
r 1.0s|     1 |     0 |  7346 |     - |simplero|   0 |2805 | 170 | 170 |   0 |  0 |   0 |   0 |      --      | 9.775947e+01 |    Inf | unknown
r 1.0s|     1 |     0 |  7413 |     - |simplero|   0 |2805 | 170 | 170 |   0 |  0 |   0 |   0 |      --      | 9.745898e+01 |    Inf | unknown
r 1.0s|     1 |     0 |  7468 |     - |simplero|   0 |2805 | 170 | 170 |   0 |  0 |   0 |   0 |      --      | 9.728054e+01 |    Inf | unknown
r 1.0s|     1 |     0 |  7627 |     - |simplero|   0 |2822 | 170 | 170 |   0 |  0 |   0 |   0 |      --      | 9.518014e+01 |    Inf | unknown
r 1.0s|     1 |     0 |  7645 |     - |simplero|   0 |2822 | 170 | 170 |   0 |  0 |   0 |   0 |      --      | 9.512071e+01 |    Inf | unknown
r 1.0s|     1 |     0 |  7650 |     - |simplero|   0 |2822 | 170 | 170 |   0 |  0 |   0 |   0 |      --      | 9.511527e+01 |    Inf | unknown
r 1.1s|     1 |     0 |  7787 |     - |simplero|   0 |2839 | 170 | 170 |   0 |  0 |   0 |   0 |      --      | 9.356363e+01 |    Inf | unknown
r 1.1s|     1 |     0 |  7837 |     - |simplero|   0 |2839 | 170 | 170 |   0 |  0 |   0 |   0 |      --      | 9.337265e+01 |    Inf | unknown
 time | node  | left  |LP iter|LP it/n|mem/heur|mdpt |vars |cons |rows |cuts |sepa|confs|strbr|  dualbound   | primalbound  |  gap   | compl. 
r 1.1s|     1 |     0 |  7879 |     - |simplero|   0 |2839 | 170 | 170 |   0 |  0 |   0 |   0 |      --      | 9.327936e+01 |    Inf | unknown
r 1.1s|     1 |     0 |  7904 |     - |simplero|   0 |2839 | 170 | 170 |   0 |  0 |   0 |   0 |      --      | 9.326644e+01 |    Inf | unknown
r 1.1s|     1 |     0 |  7914 |     - |simplero|   0 |2839 | 170 | 170 |   0 |  0 |   0 |   0 |      --      | 9.326420e+01 |    Inf | unknown
r 1.1s|     1 |     0 |  7918 |     - |simplero|   0 |2839 | 170 | 170 |   0 |  0 |   0 |   0 |      --      | 9.326328e+01 |    Inf | unknown
r 1.1s|     1 |     0 |  8024 |     - |simplero|   0 |2856 | 170 | 170 |   0 |  0 |   0 |   0 |      --      | 9.202303e+01 |    Inf | unknown
r 1.1s|     1 |     0 |  8159 |     - |simplero|   0 |2856 | 170 | 170 |   0 |  0 |   0 |   0 |      --      | 9.138549e+01 |    Inf | unknown
r 1.1s|     1 |     0 |  8194 |     - |simplero|   0 |2856 | 170 | 170 |   0 |  0 |   0 |   0 |      --      | 9.126893e+01 |    Inf | unknown
r 1.1s|     1 |     0 |  8202 |     - |simplero|   0 |2856 | 170 | 170 |   0 |  0 |   0 |   0 |      --      | 9.126276e+01 |    Inf | unknown
r 1.1s|     1 |     0 |  8203 |     - |simplero|   0 |2856 | 170 | 170 |   0 |  0 |   0 |   0 |      --      | 9.126262e+01 |    Inf | unknown
r 1.2s|     1 |     0 |  8322 |     - |simplero|   0 |2873 | 170 | 170 |   0 |  0 |   0 |   0 |      --      | 8.951443e+01 |    Inf | unknown
r 1.2s|     1 |     0 |  8411 |     - |simplero|   0 |2873 | 170 | 170 |   0 |  0 |   0 |   0 |      --      | 8.890786e+01 |    Inf | unknown
r 1.2s|     1 |     0 |  8455 |     - |simplero|   0 |2873 | 170 | 170 |   0 |  0 |   0 |   0 |      --      | 8.880844e+01 |    Inf | unknown
r 1.2s|     1 |     0 |  8460 |     - |simplero|   0 |2873 | 170 | 170 |   0 |  0 |   0 |   0 |      --      | 8.880688e+01 |    Inf | unknown
r 1.2s|     1 |     0 |  8461 |     - |simplero|   0 |2873 | 170 | 170 |   0 |  0 |   0 |   0 |      --      | 8.880664e+01 |    Inf | unknown
r 1.2s|     1 |     0 |  8566 |     - |simplero|   0 |2890 | 170 | 170 |   0 |  0 |   0 |   0 |      --      | 8.784169e+01 |    Inf | unknown
 time | node  | left  |LP iter|LP it/n|mem/heur|mdpt |vars |cons |rows |cuts |sepa|confs|strbr|  dualbound   | primalbound  |  gap   | compl. 
r 1.2s|     1 |     0 |  8643 |     - |simplero|   0 |2890 | 170 | 170 |   0 |  0 |   0 |   0 |      --      | 8.727642e+01 |    Inf | unknown
r 1.2s|     1 |     0 |  8682 |     - |simplero|   0 |2890 | 170 | 170 |   0 |  0 |   0 |   0 |      --      | 8.716656e+01 |    Inf | unknown
r 1.2s|     1 |     0 |  8685 |     - |simplero|   0 |2890 | 170 | 170 |   0 |  0 |   0 |   0 |      --      | 8.716587e+01 |    Inf | unknown
  1.2s|     1 |     0 |  8852 |     - |    13M |   0 |2907 | 170 | 170 |   0 |  0 |   0 |   0 |      --      | 8.716587e+01 |    Inf | unknown
r 1.2s|     1 |     0 |  8852 |     - |simplero|   0 |2907 | 170 | 170 |   0 |  0 |   0 |   0 |      --      | 8.491349e+01 |    Inf | unknown
r 1.2s|     1 |     0 |  8891 |     - |simplero|   0 |2907 | 170 | 170 |   0 |  0 |   0 |   0 |      --      | 8.483425e+01 |    Inf | unknown
r 1.2s|     1 |     0 |  8913 |     - |simplero|   0 |2907 | 170 | 170 |   0 |  0 |   0 |   0 |      --      | 8.482525e+01 |    Inf | unknown
r 1.3s|     1 |     0 |  9059 |     - |simplero|   0 |2924 | 170 | 170 |   0 |  0 |   0 |   0 |      --      | 8.335028e+01 |    Inf | unknown
r 1.3s|     1 |     0 |  9131 |     - |simplero|   0 |2924 | 170 | 170 |   0 |  0 |   0 |   0 |      --      | 8.317450e+01 |    Inf | unknown
r 1.3s|     1 |     0 |  9132 |     - |simplero|   0 |2924 | 170 | 170 |   0 |  0 |   0 |   0 |      --      | 8.317382e+01 |    Inf | unknown
r 1.3s|     1 |     0 |  9352 |     - |simplero|   0 |2941 | 170 | 170 |   0 |  0 |   0 |   0 |      --      | 8.110153e+01 |    Inf | unknown
r 1.3s|     1 |     0 |  9409 |     - |simplero|   0 |2941 | 170 | 170 |   0 |  0 |   0 |   0 |      --      | 8.097731e+01 |    Inf | unknown
r 1.3s|     1 |     0 |  9587 |     - |simplero|   0 |2958 | 170 | 170 |   0 |  0 |   0 |   0 |      --      | 7.929362e+01 |    Inf | unknown
r 1.3s|     1 |     0 |  9670 |     - |simplero|   0 |2958 | 170 | 170 |   0 |  0 |   0 |   0 |      --      | 7.917034e+01 |    Inf | unknown
r 1.3s|     1 |     0 |  9852 |     - |simplero|   0 |2975 | 170 | 170 |   0 |  0 |   0 |   0 |      --      | 7.760625e+01 |    Inf | unknown
 time | node  | left  |LP iter|LP it/n|mem/heur|mdpt |vars |cons |rows |cuts |sepa|confs|strbr|  dualbound   | primalbound  |  gap   | compl. 
r 1.4s|     1 |     0 |  9944 |     - |simplero|   0 |2975 | 170 | 170 |   0 |  0 |   0 |   0 |      --      | 7.726440e+01 |    Inf | unknown
r 1.4s|     1 |     0 |  9959 |     - |simplero|   0 |2975 | 170 | 170 |   0 |  0 |   0 |   0 |      --      | 7.726056e+01 |    Inf | unknown
r 1.4s|     1 |     0 |  9966 |     - |simplero|   0 |2975 | 170 | 170 |   0 |  0 |   0 |   0 |      --      | 7.725820e+01 |    Inf | unknown
r 1.4s|     1 |     0 | 10120 |     - |simplero|   0 |2992 | 170 | 170 |   0 |  0 |   0 |   0 |      --      | 7.623805e+01 |    Inf | unknown
r 1.4s|     1 |     0 | 10181 |     - |simplero|   0 |2992 | 170 | 170 |   0 |  0 |   0 |   0 |      --      | 7.607134e+01 |    Inf | unknown
r 1.4s|     1 |     0 | 10200 |     - |simplero|   0 |2992 | 170 | 170 |   0 |  0 |   0 |   0 |      --      | 7.605923e+01 |    Inf | unknown
r 1.4s|     1 |     0 | 10205 |     - |simplero|   0 |2992 | 170 | 170 |   0 |  0 |   0 |   0 |      --      | 7.605738e+01 |    Inf | unknown
r 1.4s|     1 |     0 | 10366 |     - |simplero|   0 |3009 | 170 | 170 |   0 |  0 |   0 |   0 |      --      | 7.477413e+01 |    Inf | unknown
r 1.4s|     1 |     0 | 10458 |     - |simplero|   0 |3009 | 170 | 170 |   0 |  0 |   0 |   0 |      --      | 7.429975e+01 |    Inf | unknown
r 1.4s|     1 |     0 | 10475 |     - |simplero|   0 |3009 | 170 | 170 |   0 |  0 |   0 |   0 |      --      | 7.429043e+01 |    Inf | unknown
r 1.5s|     1 |     0 | 10663 |     - |simplero|   0 |3026 | 170 | 170 |   0 |  0 |   0 |   0 |      --      | 7.333923e+01 |    Inf | unknown
r 1.5s|     1 |     0 | 10702 |     - |simplero|   0 |3026 | 170 | 170 |   0 |  0 |   0 |   0 |      --      | 7.324892e+01 |    Inf | unknown
r 1.5s|     1 |     0 | 10719 |     - |simplero|   0 |3026 | 170 | 170 |   0 |  0 |   0 |   0 |      --      | 7.323718e+01 |    Inf | unknown
r 1.5s|     1 |     0 | 10840 |     - |simplero|   0 |3043 | 170 | 170 |   0 |  0 |   0 |   0 |      --      | 7.226889e+01 |    Inf | unknown
r 1.5s|     1 |     0 | 10878 |     - |simplero|   0 |3043 | 170 | 170 |   0 |  0 |   0 |   0 |      --      | 7.218772e+01 |    Inf | unknown
 time | node  | left  |LP iter|LP it/n|mem/heur|mdpt |vars |cons |rows |cuts |sepa|confs|strbr|  dualbound   | primalbound  |  gap   | compl. 
r 1.5s|     1 |     0 | 10897 |     - |simplero|   0 |3043 | 170 | 170 |   0 |  0 |   0 |   0 |      --      | 7.217303e+01 |    Inf | unknown
r 1.5s|     1 |     0 | 10902 |     - |simplero|   0 |3043 | 170 | 170 |   0 |  0 |   0 |   0 |      --      | 7.217275e+01 |    Inf | unknown
r 1.5s|     1 |     0 | 11049 |     - |simplero|   0 |3060 | 170 | 170 |   0 |  0 |   0 |   0 |      --      | 7.093146e+01 |    Inf | unknown
r 1.5s|     1 |     0 | 11066 |     - |simplero|   0 |3060 | 170 | 170 |   0 |  0 |   0 |   0 |      --      | 7.092010e+01 |    Inf | unknown
r 1.5s|     1 |     0 | 11075 |     - |simplero|   0 |3060 | 170 | 170 |   0 |  0 |   0 |   0 |      --      | 7.091838e+01 |    Inf | unknown
r 1.5s|     1 |     0 | 11077 |     - |simplero|   0 |3060 | 170 | 170 |   0 |  0 |   0 |   0 |      --      | 7.091835e+01 |    Inf | unknown
r 1.5s|     1 |     0 | 11163 |     - |simplero|   0 |3077 | 170 | 170 |   0 |  0 |   0 |   0 |      --      | 7.043965e+01 |    Inf | unknown
r 1.6s|     1 |     0 | 11254 |     - |simplero|   0 |3077 | 170 | 170 |   0 |  0 |   0 |   0 |      --      | 7.013673e+01 |    Inf | unknown
r 1.6s|     1 |     0 | 11270 |     - |simplero|   0 |3077 | 170 | 170 |   0 |  0 |   0 |   0 |      --      | 7.011903e+01 |    Inf | unknown
r 1.6s|     1 |     0 | 11388 |     - |simplero|   0 |3094 | 170 | 170 |   0 |  0 |   0 |   0 |      --      | 6.936180e+01 |    Inf | unknown
r 1.6s|     1 |     0 | 11415 |     - |simplero|   0 |3094 | 170 | 170 |   0 |  0 |   0 |   0 |      --      | 6.926367e+01 |    Inf | unknown
r 1.6s|     1 |     0 | 11417 |     - |simplero|   0 |3094 | 170 | 170 |   0 |  0 |   0 |   0 |      --      | 6.926336e+01 |    Inf | unknown
r 1.6s|     1 |     0 | 11525 |     - |simplero|   0 |3111 | 170 | 170 |   0 |  0 |   0 |   0 |      --      | 6.862380e+01 |    Inf | unknown
r 1.6s|     1 |     0 | 11580 |     - |simplero|   0 |3111 | 170 | 170 |   0 |  0 |   0 |   0 |      --      | 6.847324e+01 |    Inf | unknown
r 1.6s|     1 |     0 | 11585 |     - |simplero|   0 |3111 | 170 | 170 |   0 |  0 |   0 |   0 |      --      | 6.847177e+01 |    Inf | unknown
 time | node  | left  |LP iter|LP it/n|mem/heur|mdpt |vars |cons |rows |cuts |sepa|confs|strbr|  dualbound   | primalbound  |  gap   | compl. 
r 1.6s|     1 |     0 | 11702 |     - |simplero|   0 |3128 | 170 | 170 |   0 |  0 |   0 |   0 |      --      | 6.781887e+01 |    Inf | unknown
r 1.6s|     1 |     0 | 11747 |     - |simplero|   0 |3128 | 170 | 170 |   0 |  0 |   0 |   0 |      --      | 6.772075e+01 |    Inf | unknown
r 1.6s|     1 |     0 | 11755 |     - |simplero|   0 |3128 | 170 | 170 |   0 |  0 |   0 |   0 |      --      | 6.771933e+01 |    Inf | unknown
r 1.7s|     1 |     0 | 11877 |     - |simplero|   0 |3145 | 170 | 170 |   0 |  0 |   0 |   0 |      --      | 6.703698e+01 |    Inf | unknown
r 1.7s|     1 |     0 | 11962 |     - |simplero|   0 |3145 | 170 | 170 |   0 |  0 |   0 |   0 |      --      | 6.661711e+01 |    Inf | unknown
r 1.7s|     1 |     0 | 11988 |     - |simplero|   0 |3145 | 170 | 170 |   0 |  0 |   0 |   0 |      --      | 6.658946e+01 |    Inf | unknown
r 1.7s|     1 |     0 | 12132 |     - |simplero|   0 |3162 | 170 | 170 |   0 |  0 |   0 |   0 |      --      | 6.578101e+01 |    Inf | unknown
r 1.7s|     1 |     0 | 12149 |     - |simplero|   0 |3162 | 170 | 170 |   0 |  0 |   0 |   0 |      --      | 6.576956e+01 |    Inf | unknown
r 1.7s|     1 |     0 | 12159 |     - |simplero|   0 |3162 | 170 | 170 |   0 |  0 |   0 |   0 |      --      | 6.576342e+01 |    Inf | unknown
r 1.7s|     1 |     0 | 12276 |     - |simplero|   0 |3179 | 170 | 170 |   0 |  0 |   0 |   0 |      --      | 6.524728e+01 |    Inf | unknown
r 1.7s|     1 |     0 | 12327 |     - |simplero|   0 |3179 | 170 | 170 |   0 |  0 |   0 |   0 |      --      | 6.513960e+01 |    Inf | unknown
r 1.7s|     1 |     0 | 12348 |     - |simplero|   0 |3179 | 170 | 170 |   0 |  0 |   0 |   0 |      --      | 6.512980e+01 |    Inf | unknown
r 1.7s|     1 |     0 | 12350 |     - |simplero|   0 |3179 | 170 | 170 |   0 |  0 |   0 |   0 |      --      | 6.512968e+01 |    Inf | unknown
r 1.7s|     1 |     0 | 12469 |     - |simplero|   0 |3196 | 170 | 170 |   0 |  0 |   0 |   0 |      --      | 6.455789e+01 |    Inf | unknown
r 1.8s|     1 |     0 | 12545 |     - |simplero|   0 |3196 | 170 | 170 |   0 |  0 |   0 |   0 |      --      | 6.440845e+01 |    Inf | unknown
 time | node  | left  |LP iter|LP it/n|mem/heur|mdpt |vars |cons |rows |cuts |sepa|confs|strbr|  dualbound   | primalbound  |  gap   | compl. 
r 1.8s|     1 |     0 | 12562 |     - |simplero|   0 |3196 | 170 | 170 |   0 |  0 |   0 |   0 |      --      | 6.440255e+01 |    Inf | unknown
r 1.8s|     1 |     0 | 12751 |     - |simplero|   0 |3213 | 170 | 170 |   0 |  0 |   0 |   0 |      --      | 6.337780e+01 |    Inf | unknown
r 1.8s|     1 |     0 | 12816 |     - |simplero|   0 |3213 | 170 | 170 |   0 |  0 |   0 |   0 |      --      | 6.311171e+01 |    Inf | unknown
r 1.8s|     1 |     0 | 12821 |     - |simplero|   0 |3213 | 170 | 170 |   0 |  0 |   0 |   0 |      --      | 6.311133e+01 |    Inf | unknown
r 1.8s|     1 |     0 | 12959 |     - |simplero|   0 |3230 | 170 | 170 |   0 |  0 |   0 |   0 |      --      | 6.255600e+01 |    Inf | unknown
r 1.8s|     1 |     0 | 13022 |     - |simplero|   0 |3230 | 170 | 170 |   0 |  0 |   0 |   0 |      --      | 6.244571e+01 |    Inf | unknown
r 1.8s|     1 |     0 | 13180 |     - |simplero|   0 |3247 | 170 | 170 |   0 |  0 |   0 |   0 |      --      | 6.174654e+01 |    Inf | unknown
r 1.8s|     1 |     0 | 13211 |     - |simplero|   0 |3247 | 170 | 170 |   0 |  0 |   0 |   0 |      --      | 6.172111e+01 |    Inf | unknown
r 1.8s|     1 |     0 | 13223 |     - |simplero|   0 |3247 | 170 | 170 |   0 |  0 |   0 |   0 |      --      | 6.171618e+01 |    Inf | unknown
r 1.9s|     1 |     0 | 13351 |     - |simplero|   0 |3264 | 170 | 170 |   0 |  0 |   0 |   0 |      --      | 6.105438e+01 |    Inf | unknown
r 1.9s|     1 |     0 | 13378 |     - |simplero|   0 |3264 | 170 | 170 |   0 |  0 |   0 |   0 |      --      | 6.103477e+01 |    Inf | unknown
r 1.9s|     1 |     0 | 13386 |     - |simplero|   0 |3264 | 170 | 170 |   0 |  0 |   0 |   0 |      --      | 6.103311e+01 |    Inf | unknown
r 1.9s|     1 |     0 | 13461 |     - |simplero|   0 |3281 | 170 | 170 |   0 |  0 |   0 |   0 |      --      | 6.079437e+01 |    Inf | unknown
r 1.9s|     1 |     0 | 13511 |     - |simplero|   0 |3281 | 170 | 170 |   0 |  0 |   0 |   0 |      --      | 6.068381e+01 |    Inf | unknown
r 1.9s|     1 |     0 | 13515 |     - |simplero|   0 |3281 | 170 | 170 |   0 |  0 |   0 |   0 |      --      | 6.068332e+01 |    Inf | unknown
 time | node  | left  |LP iter|LP it/n|mem/heur|mdpt |vars |cons |rows |cuts |sepa|confs|strbr|  dualbound   | primalbound  |  gap   | compl. 
r 1.9s|     1 |     0 | 13664 |     - |simplero|   0 |3298 | 170 | 170 |   0 |  0 |   0 |   0 |      --      | 6.006596e+01 |    Inf | unknown
r 1.9s|     1 |     0 | 13688 |     - |simplero|   0 |3298 | 170 | 170 |   0 |  0 |   0 |   0 |      --      | 6.003533e+01 |    Inf | unknown
r 1.9s|     1 |     0 | 13691 |     - |simplero|   0 |3298 | 170 | 170 |   0 |  0 |   0 |   0 |      --      | 6.003216e+01 |    Inf | unknown
r 1.9s|     1 |     0 | 13692 |     - |simplero|   0 |3298 | 170 | 170 |   0 |  0 |   0 |   0 |      --      | 6.003199e+01 |    Inf | unknown
r 1.9s|     1 |     0 | 13829 |     - |simplero|   0 |3315 | 170 | 170 |   0 |  0 |   0 |   0 |      --      | 5.956830e+01 |    Inf | unknown
r 1.9s|     1 |     0 | 13926 |     - |simplero|   0 |3315 | 170 | 170 |   0 |  0 |   0 |   0 |      --      | 5.935868e+01 |    Inf | unknown
r 1.9s|     1 |     0 | 13953 |     - |simplero|   0 |3315 | 170 | 170 |   0 |  0 |   0 |   0 |      --      | 5.932458e+01 |    Inf | unknown
r 2.0s|     1 |     0 | 14089 |     - |simplero|   0 |3332 | 170 | 170 |   0 |  0 |   0 |   0 |      --      | 5.876149e+01 |    Inf | unknown
r 2.0s|     1 |     0 | 14123 |     - |simplero|   0 |3332 | 170 | 170 |   0 |  0 |   0 |   0 |      --      | 5.869107e+01 |    Inf | unknown
r 2.0s|     1 |     0 | 14128 |     - |simplero|   0 |3332 | 170 | 170 |   0 |  0 |   0 |   0 |      --      | 5.869053e+01 |    Inf | unknown
r 2.0s|     1 |     0 | 14237 |     - |simplero|   0 |3349 | 170 | 170 |   0 |  0 |   0 |   0 |      --      | 5.822206e+01 |    Inf | unknown
r 2.0s|     1 |     0 | 14264 |     - |simplero|   0 |3349 | 170 | 170 |   0 |  0 |   0 |   0 |      --      | 5.821221e+01 |    Inf | unknown
r 2.0s|     1 |     0 | 14273 |     - |simplero|   0 |3349 | 170 | 170 |   0 |  0 |   0 |   0 |      --      | 5.820977e+01 |    Inf | unknown
r 2.0s|     1 |     0 | 14371 |     - |simplero|   0 |3366 | 170 | 170 |   0 |  0 |   0 |   0 |      --      | 5.791897e+01 |    Inf | unknown
r 2.0s|     1 |     0 | 14391 |     - |simplero|   0 |3366 | 170 | 170 |   0 |  0 |   0 |   0 |      --      | 5.790736e+01 |    Inf | unknown
 time | node  | left  |LP iter|LP it/n|mem/heur|mdpt |vars |cons |rows |cuts |sepa|confs|strbr|  dualbound   | primalbound  |  gap   | compl. 
r 2.0s|     1 |     0 | 14521 |     - |simplero|   0 |3383 | 170 | 170 |   0 |  0 |   0 |   0 |      --      | 5.749634e+01 |    Inf | unknown
r 2.0s|     1 |     0 | 14540 |     - |simplero|   0 |3383 | 170 | 170 |   0 |  0 |   0 |   0 |      --      | 5.748444e+01 |    Inf | unknown
r 2.0s|     1 |     0 | 14547 |     - |simplero|   0 |3383 | 170 | 170 |   0 |  0 |   0 |   0 |      --      | 5.748300e+01 |    Inf | unknown
r 2.0s|     1 |     0 | 14671 |     - |simplero|   0 |3400 | 170 | 170 |   0 |  0 |   0 |   0 |      --      | 5.718415e+01 |    Inf | unknown
r 2.0s|     1 |     0 | 14704 |     - |simplero|   0 |3400 | 170 | 170 |   0 |  0 |   0 |   0 |      --      | 5.716365e+01 |    Inf | unknown
r 2.0s|     1 |     0 | 14707 |     - |simplero|   0 |3400 | 170 | 170 |   0 |  0 |   0 |   0 |      --      | 5.716331e+01 |    Inf | unknown
r 2.1s|     1 |     0 | 14807 |     - |simplero|   0 |3417 | 170 | 170 |   0 |  0 |   0 |   0 |      --      | 5.693772e+01 |    Inf | unknown
r 2.1s|     1 |     0 | 14848 |     - |simplero|   0 |3417 | 170 | 170 |   0 |  0 |   0 |   0 |      --      | 5.690697e+01 |    Inf | unknown
r 2.1s|     1 |     0 | 14852 |     - |simplero|   0 |3417 | 170 | 170 |   0 |  0 |   0 |   0 |      --      | 5.690620e+01 |    Inf | unknown
r 2.1s|     1 |     0 | 14940 |     - |simplero|   0 |3434 | 170 | 170 |   0 |  0 |   0 |   0 |      --      | 5.672258e+01 |    Inf | unknown
  2.1s|     1 |     0 | 14965 |     - |    21M |   0 |3434 | 170 | 170 |   0 |  0 |   0 |   0 |      --      | 5.672258e+01 |    Inf | unknown
r 2.1s|     1 |     0 | 14965 |     - |simplero|   0 |3434 | 170 | 170 |   0 |  0 |   0 |   0 |      --      | 5.670267e+01 |    Inf | unknown
r 2.1s|     1 |     0 | 14970 |     - |simplero|   0 |3434 | 170 | 170 |   0 |  0 |   0 |   0 |      --      | 5.670235e+01 |    Inf | unknown
r 2.1s|     1 |     0 | 15075 |     - |simplero|   0 |3451 | 170 | 170 |   0 |  0 |   0 |   0 |      --      | 5.652205e+01 |    Inf | unknown
r 2.1s|     1 |     0 | 15131 |     - |simplero|   0 |3451 | 170 | 170 |   0 |  0 |   0 |   0 |      --      | 5.647358e+01 |    Inf | unknown
 time | node  | left  |LP iter|LP it/n|mem/heur|mdpt |vars |cons |rows |cuts |sepa|confs|strbr|  dualbound   | primalbound  |  gap   | compl. 
r 2.1s|     1 |     0 | 15143 |     - |simplero|   0 |3451 | 170 | 170 |   0 |  0 |   0 |   0 |      --      | 5.647250e+01 |    Inf | unknown
r 2.1s|     1 |     0 | 15238 |     - |simplero|   0 |3468 | 170 | 170 |   0 |  0 |   0 |   0 |      --      | 5.632867e+01 |    Inf | unknown
r 2.1s|     1 |     0 | 15275 |     - |simplero|   0 |3468 | 170 | 170 |   0 |  0 |   0 |   0 |      --      | 5.629762e+01 |    Inf | unknown
r 2.1s|     1 |     0 | 15290 |     - |simplero|   0 |3468 | 170 | 170 |   0 |  0 |   0 |   0 |      --      | 5.629224e+01 |    Inf | unknown
r 2.1s|     1 |     0 | 15295 |     - |simplero|   0 |3468 | 170 | 170 |   0 |  0 |   0 |   0 |      --      | 5.629211e+01 |    Inf | unknown
r 2.1s|     1 |     0 | 15434 |     - |simplero|   0 |3485 | 170 | 170 |   0 |  0 |   0 |   0 |      --      | 5.609052e+01 |    Inf | unknown
r 2.1s|     1 |     0 | 15437 |     - |simplero|   0 |3485 | 170 | 170 |   0 |  0 |   0 |   0 |      --      | 5.608959e+01 |    Inf | unknown
r 2.2s|     1 |     0 | 15551 |     - |simplero|   0 |3502 | 170 | 170 |   0 |  0 |   0 |   0 |      --      | 5.594863e+01 |    Inf | unknown
r 2.2s|     1 |     0 | 15578 |     - |simplero|   0 |3502 | 170 | 170 |   0 |  0 |   0 |   0 |      --      | 5.594006e+01 |    Inf | unknown
r 2.2s|     1 |     0 | 15592 |     - |simplero|   0 |3502 | 170 | 170 |   0 |  0 |   0 |   0 |      --      | 5.593951e+01 |    Inf | unknown
r 2.2s|     1 |     0 | 15667 |     - |simplero|   0 |3518 | 170 | 170 |   0 |  0 |   0 |   0 |      --      | 5.584385e+01 |    Inf | unknown
r 2.2s|     1 |     0 | 15700 |     - |simplero|   0 |3518 | 170 | 170 |   0 |  0 |   0 |   0 |      --      | 5.582048e+01 |    Inf | unknown
r 2.2s|     1 |     0 | 15719 |     - |simplero|   0 |3518 | 170 | 170 |   0 |  0 |   0 |   0 |      --      | 5.581492e+01 |    Inf | unknown
r 2.2s|     1 |     0 | 15721 |     - |simplero|   0 |3518 | 170 | 170 |   0 |  0 |   0 |   0 |      --      | 5.581491e+01 |    Inf | unknown
r 2.2s|     1 |     0 | 15722 |     - |simplero|   0 |3518 | 170 | 170 |   0 |  0 |   0 |   0 |      --      | 5.581490e+01 |    Inf | unknown
 time | node  | left  |LP iter|LP it/n|mem/heur|mdpt |vars |cons |rows |cuts |sepa|confs|strbr|  dualbound   | primalbound  |  gap   | compl. 
r 2.2s|     1 |     0 | 15860 |     - |simplero|   0 |3535 | 170 | 170 |   0 |  0 |   0 |   0 |      --      | 5.568979e+01 |    Inf | unknown
r 2.2s|     1 |     0 | 15869 |     - |simplero|   0 |3535 | 170 | 170 |   0 |  0 |   0 |   0 |      --      | 5.568665e+01 |    Inf | unknown
r 2.2s|     1 |     0 | 15876 |     - |simplero|   0 |3535 | 170 | 170 |   0 |  0 |   0 |   0 |      --      | 5.568431e+01 |    Inf | unknown
r 2.2s|     1 |     0 | 15879 |     - |simplero|   0 |3535 | 170 | 170 |   0 |  0 |   0 |   0 |      --      | 5.568410e+01 |    Inf | unknown
r 2.2s|     1 |     0 | 15976 |     - |simplero|   0 |3552 | 170 | 170 |   0 |  0 |   0 |   0 |      --      | 5.557937e+01 |    Inf | unknown
r 2.2s|     1 |     0 | 16037 |     - |simplero|   0 |3552 | 170 | 170 |   0 |  0 |   0 |   0 |      --      | 5.556621e+01 |    Inf | unknown
r 2.2s|     1 |     0 | 16038 |     - |simplero|   0 |3552 | 170 | 170 |   0 |  0 |   0 |   0 |      --      | 5.556620e+01 |    Inf | unknown
r 2.2s|     1 |     0 | 16162 |     - |simplero|   0 |3568 | 170 | 170 |   0 |  0 |   0 |   0 |      --      | 5.540453e+01 |    Inf | unknown
r 2.3s|     1 |     0 | 16252 |     - |simplero|   0 |3568 | 170 | 170 |   0 |  0 |   0 |   0 |      --      | 5.531484e+01 |    Inf | unknown
r 2.3s|     1 |     0 | 16271 |     - |simplero|   0 |3568 | 170 | 170 |   0 |  0 |   0 |   0 |      --      | 5.531172e+01 |    Inf | unknown
r 2.3s|     1 |     0 | 16407 |     - |simplero|   0 |3585 | 170 | 170 |   0 |  0 |   0 |   0 |      --      | 5.517097e+01 |    Inf | unknown
r 2.3s|     1 |     0 | 16430 |     - |simplero|   0 |3585 | 170 | 170 |   0 |  0 |   0 |   0 |      --      | 5.516345e+01 |    Inf | unknown
r 2.3s|     1 |     0 | 16441 |     - |simplero|   0 |3585 | 170 | 170 |   0 |  0 |   0 |   0 |      --      | 5.516310e+01 |    Inf | unknown
r 2.3s|     1 |     0 | 16537 |     - |simplero|   0 |3602 | 170 | 170 |   0 |  0 |   0 |   0 |      --      | 5.505490e+01 |    Inf | unknown
r 2.3s|     1 |     0 | 16569 |     - |simplero|   0 |3602 | 170 | 170 |   0 |  0 |   0 |   0 |      --      | 5.505159e+01 |    Inf | unknown
 time | node  | left  |LP iter|LP it/n|mem/heur|mdpt |vars |cons |rows |cuts |sepa|confs|strbr|  dualbound   | primalbound  |  gap   | compl. 
r 2.3s|     1 |     0 | 16578 |     - |simplero|   0 |3602 | 170 | 170 |   0 |  0 |   0 |   0 |      --      | 5.505128e+01 |    Inf | unknown
r 2.3s|     1 |     0 | 16580 |     - |simplero|   0 |3602 | 170 | 170 |   0 |  0 |   0 |   0 |      --      | 5.505128e+01 |    Inf | unknown
r 2.3s|     1 |     0 | 16660 |     - |simplero|   0 |3619 | 170 | 170 |   0 |  0 |   0 |   0 |      --      | 5.499649e+01 |    Inf | unknown
r 2.3s|     1 |     0 | 16703 |     - |simplero|   0 |3619 | 170 | 170 |   0 |  0 |   0 |   0 |      --      | 5.497599e+01 |    Inf | unknown
r 2.3s|     1 |     0 | 16763 |     - |simplero|   0 |3636 | 170 | 170 |   0 |  0 |   0 |   0 |      --      | 5.493396e+01 |    Inf | unknown
r 2.3s|     1 |     0 | 16779 |     - |simplero|   0 |3636 | 170 | 170 |   0 |  0 |   0 |   0 |      --      | 5.493138e+01 |    Inf | unknown
r 2.3s|     1 |     0 | 16905 |     - |simplero|   0 |3652 | 170 | 170 |   0 |  0 |   0 |   0 |      --      | 5.480325e+01 |    Inf | unknown
r 2.3s|     1 |     0 | 16943 |     - |simplero|   0 |3652 | 170 | 170 |   0 |  0 |   0 |   0 |      --      | 5.479453e+01 |    Inf | unknown
r 2.3s|     1 |     0 | 17021 |     - |simplero|   0 |3668 | 170 | 170 |   0 |  0 |   0 |   0 |      --      | 5.472222e+01 |    Inf | unknown
r 2.3s|     1 |     0 | 17076 |     - |simplero|   0 |3668 | 170 | 170 |   0 |  0 |   0 |   0 |      --      | 5.471287e+01 |    Inf | unknown
r 2.3s|     1 |     0 | 17090 |     - |simplero|   0 |3668 | 170 | 170 |   0 |  0 |   0 |   0 |      --      | 5.471098e+01 |    Inf | unknown
r 2.4s|     1 |     0 | 17233 |     - |simplero|   0 |3685 | 170 | 170 |   0 |  0 |   0 |   0 |      --      | 5.461898e+01 |    Inf | unknown
r 2.4s|     1 |     0 | 17253 |     - |simplero|   0 |3685 | 170 | 170 |   0 |  0 |   0 |   0 |      --      | 5.461749e+01 |    Inf | unknown
r 2.4s|     1 |     0 | 17259 |     - |simplero|   0 |3685 | 170 | 170 |   0 |  0 |   0 |   0 |      --      | 5.461730e+01 |    Inf | unknown
r 2.4s|     1 |     0 | 17354 |     - |simplero|   0 |3702 | 170 | 170 |   0 |  0 |   0 |   0 |      --      | 5.454835e+01 |    Inf | unknown
 time | node  | left  |LP iter|LP it/n|mem/heur|mdpt |vars |cons |rows |cuts |sepa|confs|strbr|  dualbound   | primalbound  |  gap   | compl. 
r 2.4s|     1 |     0 | 17381 |     - |simplero|   0 |3702 | 170 | 170 |   0 |  0 |   0 |   0 |      --      | 5.454557e+01 |    Inf | unknown
r 2.4s|     1 |     0 | 17496 |     - |simplero|   0 |3718 | 170 | 170 |   0 |  0 |   0 |   0 |      --      | 5.450226e+01 |    Inf | unknown
r 2.4s|     1 |     0 | 17505 |     - |simplero|   0 |3718 | 170 | 170 |   0 |  0 |   0 |   0 |      --      | 5.450000e+01 |    Inf | unknown
  2.4s|     1 |     0 | 17505 |     - |    24M |   0 |3718 | 170 | 170 |   0 |  0 |   0 |   0 | 5.450000e+01 | 5.450000e+01 |   0.00%| unknown
  2.4s|     1 |     0 | 17505 |     - |    24M |   0 |3718 | 170 | 170 |   0 |  0 |   0 |   0 | 5.450000e+01 | 5.450000e+01 |   0.00%| unknown

SCIP Status        : problem is solved [optimal solution found]
Solving Time (sec) : 2.39
Solving Nodes      : 1
Primal Bound       : +5.45000000000000e+01 (179 solutions)
Dual Bound         : +5.45000000000000e+01
Gap                : 0.00 %

written transformed problem to file <results_rootrelaxation/bin018_090_041.srr.lp>
written transformed problem to file <results_rootrelaxation/bin018_090_041.srr.cip>

written solution information to file <results_rootrelaxation/bin018_090_041.srr.sol>



